p cnf 48 160
-1 -2 -3 0
1 2 -3 0
-1 2 3 0
1 -2 3 0
5 -2 0
5 -4 0
2 4 -5 0
8 6 0
8 -7 0
-6 7 -8 0
9 8 0
9 -6 0
-8 6 -9 0
10 11 0
-10 11 0
-12 -11 0
-12 -10 0
11 10 12 0
13 9 0
13 -12 0
-9 12 -13 0
15 -8 0
15 -11 0
8 11 -15 0
17 15 0
17 16 0
-15 -16 -17 0
18 14 0
18 17 0
-14 -17 -18 0
-18 -19 -20 0
18 19 -20 0
-18 19 20 0
18 -19 20 0
21 -7 0
21 -19 0
7 19 -21 0
22 -20 0
22 -21 0
20 21 -22 0
-13 -22 -23 0
13 22 -23 0
-13 22 23 0
13 -22 23 0
-24 5 0
-24 -23 0
-5 23 24 0
11 -12 -25 0
-11 12 -25 0
11 12 25 0
-11 -12 25 0
26 25 0
26 2 0
-25 -2 -26 0
27 7 0
27 -25 0
-7 25 -27 0
29 -28 0
29 -12 0
28 12 -29 0
-30 -8 0
-30 29 0
8 -29 30 0
27 -30 -31 0
-27 30 -31 0
27 30 31 0
-27 -30 31 0
32 26 0
32 -31 0
-26 31 -32 0
33 19 0
33 -10 0
-19 10 -33 0
16 33 -34 0
-16 -33 -34 0
16 -33 34 0
-16 33 34 0
35 -32 0
35 34 0
32 -34 -35 0
-24 35 -36 0
24 -35 -36 0
-24 -35 36 0
24 35 36 0
37 -28 0
37 11 0
28 -11 -37 0
38 -37 0
38 33 0
37 -33 -38 0
39 38 0
39 -25 0
-38 25 -39 0
40 12 0
40 -28 0
-12 28 -40 0
-41 19 0
-41 40 0
-19 -40 41 0
-42 -2 0
-42 12 0
2 -12 42 0
-41 42 -43 0
41 -42 -43 0
-41 -42 43 0
41 42 43 0
44 16 0
44 -37 0
-16 37 -44 0
45 -43 0
45 -44 0
43 44 -45 0
46 39 0
46 -45 0
-39 45 -46 0
-36 46 -47 0
36 -46 -47 0
-36 -46 47 0
36 46 47 0
48 3 0
48 47 0
-3 -47 -48 0
10 -13 -5 -35 16 0
7 -39 0
-22 -8 -35 -36 12 -45 0
5 -10 26 -43 -1 -28 0
-25 42 -45 -29 0
-37 -10 39 9 0
6 -40 16 -36 27 0
-38 21 0
-6 -24 0
6 -37 25 28 0
18 42 -36 14 21 33 0
21 -42 -27 -20 33 0
2 12 30 0
-6 32 0
-34 -32 -9 -29 -46 -2 0
-44 -40 -43 -30 0
-37 -31 -39 -46 0
47 -19 -26 7 -31 0
22 17 -25 24 6 36 0
11 -43 29 -34 -9 0
-30 -26 34 0
35 48 19 0
34 43 36 0
37 32 -12 7 0
24 -19 -44 9 4 11 0
-46 -36 0
-10 21 0
14 31 -21 -22 0
-48 41 -21 -12 16 3 0
-41 -13 0
-23 22 -28 45 21 -27 0
-37 6 0
34 9 -16 0
41 -32 19 45 16 0
-10 -17 20 -32 0
-27 24 -5 -7 0
47 -5 -2 13 37 0
48 0
